103977
57,16,55,6,32,26,50,71,80,59,46,48,33,56,42,2,11,22,54,41,24,68,14,5,60,77,40,51,38,62,3,49,64,17,36,12,53,45,44,72,63,0,9,28,79,61,69,13,66,75,25,35,65,70,20,47,23,30,18,4,21,43,67,58,52,82,7,27,78,34,29,1,37,15,10,74,81,39,73,31,8,19,76
